204937.31,22.63,24.79
202449.49,22.91,25.09
219487.61,21.13,23.14
200325.15,23.15,25.36
197818.15,23.44,25.68
226039.12,20.52,22.47
209323.42,22.15,24.27
215295.72,21.54,23.59
213398.45,21.73,23.8
213634.21,21.71,23.78
208103.36,22.28,24.41
208446.97,22.25,24.37
196556.71,23.59,25.84
198909.86,23.31,25.54
202454.23,22.91,25.09
211924.99,21.88,23.97
213733.28,21.7,23.77
222085.95,20.88,22.87
207434.07,22.36,24.49
200944.1,23.08,25.28
